\ENCODING=ISO-8859-1
\Problem name: ilog.cplex

Minimize
 obj1: 102969 x1 + 99862 x2 + 92395 x3 + 99797 x4 + 95108 x5 + 99239 x6
       + 109756 x7 + 92145 x8 + 106185 x9 + 108154 x10 + 101290 x11
       + 103024 x12 + 98864 x13 + 95170 x14 + 91730 x15 + 99670 x16 + 95284 x17
       + 92112 x18 + 92297 x19 + 94865 x20 + 98651 x21 + 91286 x22 + 107937 x23
       + 105518 x24 + 104199 x25 + 101112 x26 + 101718 x27 + 97751 x28
       + 108722 x29 + 96725 x30 + 109149 x31 + 90256 x32 + 108866 x33
       + 92642 x34 + 106410 x35 + 100957 x36 + 104923 x37 + 105658 x38
       + 103427 x39 + 95961 x40 + 99086 x41 + 107912 x42 + 95175 x43
       + 94321 x44 + 94970 x45 + 92390 x46 + 102816 x47 + 97318 x48
       + 108633 x49 + 106155 x50 + 109983 x51 + 106752 x52 + 90439 x53
       + 90183 x54 + 108957 x55 + 93187 x56 + 91804 x57 + 98932 x58 + 96477 x59
       + 92116 x60 + 103705 x61 + 99629 x62 + 90781 x63 + 108204 x64
       + 90075 x65 + 97863 x66 + 101417 x67 + 102888 x68 + 103001 x69
       + 93917 x70 + 97528 x71 + 94032 x72 + 94455 x73 + 93341 x74 + 109256 x75
       + 91561 x76 + 102613 x77 + 102376 x78 + 98601 x79 + 103206 x80
       + 106721 x81 + 98559 x82 + 91906 x83 + 93728 x84 + 105668 x85
       + 102978 x86 + 104660 x87 + 107495 x88 + 97141 x89 + 93692 x90
       + 98013 x91 + 102462 x92 + 96925 x93 + 90797 x94 + 106884 x95
       + 104886 x96 + 101218 x97 + 100221 x98 + 90661 x99 + 90982 x100
       + 98735 x101 + 105500 x102 + 99231 x103 + 94265 x104 + 103956 x105
       + 104654 x106 + 99432 x107 + 105449 x108 + 108015 x109 + 102720 x110
       + 90016 x111 + 95563 x112 + 109559 x113 + 109589 x114 + 106825 x115
       + 92317 x116 + 94308 x117 + 97491 x118 + 104115 x119 + 94795 x120
       + 102176 x121 + 103999 x122 + 92961 x123 + 102141 x124 + 98459 x125
       + 103879 x126 + 100234 x127 + 106552 x128 + 97071 x129 + 100781 x130
       + 92582 x131 + 107903 x132 + 106746 x133 + 106678 x134 + 103063 x135
       + 98572 x136 + 93216 x137 + 97438 x138 + 98981 x139 + 100498 x140
       + 100010 x141 + 109086 x142 + 95425 x143 + 93086 x144 + 96081 x145
       + 99020 x146 + 107718 x147 + 92340 x148 + 97957 x149 + 106889 x150
       + 92628 x151 + 103443 x152 + 109800 x153 + 102502 x154 + 109126 x155
       + 99469 x156 + 96001 x157 + 101444 x158 + 96076 x159 + 100039 x160
       + 107838 x161 + 102994 x162 + 96443 x163 + 95471 x164 + 108246 x165
       + 99508 x166 + 95434 x167 + 104339 x168 + 96895 x169 + 101578 x170
       + 103443 x171 + 105321 x172 + 91537 x173 + 99112 x174 + 103767 x175
       + 107880 x176 + 90976 x177 + 94867 x178 + 99750 x179 + 100494 x180
       + 100073 x181 + 97600 x182 + 91338 x183 + 97072 x184 + 101660 x185
       + 104833 x186 + 94638 x187 + 108846 x188 + 93623 x189 + 103085 x190
       + 104541 x191 + 104516 x192 + 100302 x193 + 97855 x194 + 107073 x195
       + 95587 x196 + 101422 x197 + 108874 x198 + 98253 x199 + 96223 x200
       + 95578 x201 + 104842 x202 + 99397 x203 + 93608 x204 + 103714 x205
       + 95852 x206 + 103646 x207 + 99510 x208 + 107749 x209 + 96534 x210
       + 106215 x211 + 103183 x212 + 109373 x213 + 98596 x214 + 93568 x215
       + 96721 x216 + 94518 x217 + 92700 x218 + 109993 x219 + 100553 x220
       + 100130 x221 + 96534 x222 + 103991 x223 + 98990 x224 + 101597 x225
       + 98412 x226 + 101448 x227 + 103532 x228 + 91561 x229 + 93943 x230
       + 97725 x231 + 95137 x232 + 103826 x233 + 97010 x234 + 106604 x235
       + 95721 x236 + 109676 x237 + 105754 x238 + 90464 x239 + 103863 x240
       + 100015 x241 + 106927 x242 + 91109 x243 + 104243 x244 + 102495 x245
       + 95014 x246 + 92945 x247 + 93294 x248 + 97107 x249 + 106481 x250
       + 101630 x251 + 98389 x252 + 90435 x253 + 98786 x254 + 102929 x255
       + 106862 x256 + 109705 x257 + 108562 x258 + 96343 x259 + 93043 x260
       + 90558 x261 + 94731 x262 + 95187 x263 + 90260 x264 + 98151 x265
       + 97708 x266 + 100226 x267 + 105327 x268 + 96733 x269 + 102680 x270
       + 105214 x271 + 105835 x272 + 98147 x273 + 94768 x274 + 108316 x275
       + 103237 x276 + 100686 x277 + 104423 x278 + 94685 x279 + 108046 x280
       + 96307 x281 + 102458 x282 + 102340 x283 + 107343 x284 + 96406 x285
       + 95921 x286 + 106017 x287 + 109404 x288 + 104213 x289 + 98316 x290
       + 91821 x291 + 95365 x292 + 105284 x293 + 100712 x294 + 109254 x295
       + 93707 x296 + 96696 x297 + 93878 x298 + 96610 x299 + 109716 x300
       + 99159 x301 + 105044 x302 + 103903 x303 + 92796 x304 + 93080 x305
       + 91815 x306 + 106468 x307 + 97986 x308 + 98924 x309 + 100828 x310
       + 94478 x311 + 108955 x312 + 102106 x313 + 105062 x314 + 91076 x315
       + 100313 x316 + 91730 x317 + 91064 x318 + 103823 x319 + 104678 x320
       + 94297 x321 + 99400 x322 + 102587 x323 + 109507 x324 + 100069 x325
       + 90405 x326 + 94643 x327 + 108344 x328 + 108174 x329 + 90674 x330
       + 97745 x331 + 90164 x332 + 98585 x333 + 101071 x334 + 101829 x335
       + 96084 x336 + 101786 x337 + 97994 x338 + 90472 x339 + 94042 x340
       + 100233 x341 + 96210 x342 + 104358 x343 + 98890 x344 + 99655 x345
       + 103775 x346 + 90734 x347 + 97903 x348 + 92774 x349 + 107411 x350
       + 95208 x351 + 109821 x352 + 103222 x353 + 100139 x354 + 95216 x355
       + 109328 x356 + 103198 x357 + 102059 x358 + 108124 x359 + 108270 x360
       + 99915 x361 + 92637 x362 + 101229 x363 + 105053 x364 + 103222 x365
       + 90688 x366 + 95294 x367 + 99494 x368 + 90344 x369 + 109365 x370
       + 93846 x371 + 93088 x372 + 102484 x373 + 101775 x374 + 92747 x375
       + 109186 x376 + 96752 x377 + 92451 x378 + 107791 x379 + 104741 x380
       + 99814 x381 + 109632 x382 + 96747 x383 + 98146 x384 + 92867 x385
       + 103639 x386 + 103660 x387 + 100372 x388 + 96927 x389 + 105254 x390
       + 101160 x391 + 103001 x392 + 107360 x393 + 90047 x394 + 101895 x395
       + 96613 x396 + 102308 x397 + 107272 x398 + 91104 x399 + 103479 x400
       + 100865 x401 + 105257 x402 + 98973 x403 + 109601 x404 + 93802 x405
       + 99142 x406 + 103621 x407 + 92926 x408 + 92126 x409 + 101364 x410
       + 93356 x411 + 106858 x412 + 96925 x413 + 90462 x414 + 100349 x415
       + 91255 x416 + 107711 x417 + 109583 x418 + 106923 x419 + 106642 x420
       + 101657 x421 + 94763 x422 + 91967 x423 + 92563 x424 + 108598 x425
       + 99046 x426 + 103003 x427 + 106496 x428 + 97399 x429 + 101228 x430
       + 91843 x431 + 103655 x432 + 104538 x433 + 106436 x434 + 100403 x435
       + 103097 x436 + 90041 x437 + 93018 x438 + 95514 x439 + 106121 x440
       + 103179 x441 + 90185 x442 + 92418 x443 + 108806 x444 + 95397 x445
       + 102563 x446 + 102825 x447 + 98761 x448 + 107656 x449 + 105897 x450
       + 109216 x451 + 92178 x452 + 98574 x453 + 108205 x454 + 109173 x455
       + 92574 x456 + 109663 x457 + 96300 x458 + 96164 x459 + 103589 x460
       + 104403 x461 + 108885 x462 + 106519 x463 + 104776 x464 + 109023 x465
       + 94306 x466 + 106260 x467 + 101540 x468 + 104612 x469 + 103576 x470
       + 96003 x471 + 108196 x472 + 92527 x473 + 97428 x474 + 97315 x475
       + 96584 x476 + 98048 x477 + 109918 x478 + 109723 x479 + 101775 x480
       + 101068 x481 + 105285 x482 + 101507 x483 + 104272 x484 + 92865 x485
       + 97556 x486 + 98643 x487 + 99683 x488 + 97912 x489 + 103953 x490
       + 108293 x491 + 93593 x492 + 107026 x493 + 98426 x494 + 97457 x495
       + 108549 x496 + 106600 x497 + 96104 x498 + 109527 x499 + 93745 x500
       + 106023 x501 + 105950 x502 + 92351 x503 + 92403 x504 + 109615 x505
       + 103946 x506 + 93738 x507 + 97151 x508 + 99740 x509 + 96784 x510
       + 104009 x511 + 102915 x512 + 107501 x513 + 95284 x514 + 105160 x515
       + 98910 x516 + 102699 x517 + 96629 x518 + 101907 x519 + 93966 x520
       + 95765 x521 + 104978 x522 + 101089 x523 + 102745 x524 + 90889 x525
       + 101142 x526 + 92865 x527 + 94325 x528 + 101818 x529 + 103761 x530
       + 109606 x531 + 99171 x532 + 99621 x533 + 106740 x534 + 96561 x535
       + 105704 x536 + 105159 x537 + 90743 x538 + 102130 x539 + 93460 x540
       + 106276 x541 + 109008 x542 + 90916 x543 + 100246 x544 + 105980 x545
       + 101406 x546 + 100366 x547 + 107736 x548 + 104731 x549 + 96585 x550
       + 104009 x551 + 101267 x552 + 92485 x553 + 105632 x554 + 92351 x555
       + 90236 x556 + 94943 x557 + 90246 x558 + 96002 x559 + 91976 x560
       + 96936 x561 + 96819 x562 + 95448 x563 + 96626 x564 + 106339 x565
       + 96671 x566 + 109641 x567 + 105019 x568 + 94432 x569 + 109441 x570
       + 96203 x571 + 94469 x572 + 90038 x573 + 106313 x574 + 95273 x575
       + 97368 x576 + 106826 x577 + 95123 x578 + 98896 x579 + 103133 x580
       + 105839 x581 + 100309 x582 + 108333 x583 + 95350 x584 + 98608 x585
       + 107296 x586 + 92793 x587 + 92806 x588 + 100141 x589 + 103058 x590
       + 104815 x591 + 95659 x592 + 105627 x593 + 92495 x594 + 99912 x595
       + 106124 x596 + 109865 x597 + 103661 x598 + 91043 x599 + 40768 x600
       + 37973 x601 + 36694 x602 + 36949 x603 + 39271 x604 + 43629 x605
       + 40018 x606 + 37112 x607 + 40263 x608 + 39287 x609 + 36424 x610
       + 40132 x611 + 39338 x612 + 41605 x613 + 38011 x614 + 41051 x615
       + 38183 x616 + 39634 x617 + 36651 x618 + 39960 x619 + 39760 x620
       + 39906 x621 + 43127 x622 + 39457 x623 + 41060 x624 + 39032 x625
       + 37136 x626 + 42755 x627 + 40508 x628 + 40131 x629 + 41179 x630
       + 40765 x631 + 41023 x632 + 37669 x633 + 41998 x634 + 42102 x635
       + 42729 x636 + 36188 x637 + 40582 x638 + 42264 x639 + 43072 x640
       + 42116 x641 + 43922 x642 + 39286 x643 + 40618 x644 + 38300 x645
       + 38562 x646 + 39031 x647 + 36050 x648 + 42082 x649 + 43633 x650
       + 37801 x651 + 39899 x652 + 43711 x653 + 37432 x654 + 39333 x655
       + 43293 x656 + 42540 x657 + 38753 x658 + 41241 x659 + 37769 x660
Subject To
 c1:   x1 - x2 - x10 + x15 - x16 - x25 + x28 + x35 + x37 - x42 - x47 + x50
       + x53  = 0
 c2:   x61 - x62 - x70 + x75 - x76 - x85 + x88 + x95 + x97 - x102 - x107 + x110
       + x113  = 0
 c3:   x121 - x122 - x130 + x135 - x136 - x145 + x148 + x155 + x157 - x162
       - x167 + x170 + x173  = 0
 c4:   x181 - x182 - x190 + x195 - x196 - x205 + x208 + x215 + x217 - x222
       - x227 + x230 + x233  = 0
 c5:   x241 - x242 - x250 + x255 - x256 - x265 + x268 + x275 + x277 - x282
       - x287 + x290 + x293  = 0
 c6:   x301 - x302 - x310 + x315 - x316 - x325 + x328 + x335 + x337 - x342
       - x347 + x350 + x353  = 0
 c7:   x361 - x362 - x370 + x375 - x376 - x385 + x388 + x395 + x397 - x402
       - x407 + x410 + x413  = -1
 c8:   x421 - x422 - x430 + x435 - x436 - x445 + x448 + x455 + x457 - x462
       - x467 + x470 + x473  = 0
 c9:   x481 - x482 - x490 + x495 - x496 - x505 + x508 + x515 + x517 - x522
       - x527 + x530 + x533  = 1
 c10:  x541 - x542 - x550 + x555 - x556 - x565 + x568 + x575 + x577 - x582
       - x587 + x590 + x593  = 1
 c11:  - x4 + x9 + x12 + x21 - x22 - x39 - x54 + x59  = -1
 c12:  - x64 + x69 + x72 + x81 - x82 - x99 - x114 + x119  = 0
 c13:  - x124 + x129 + x132 + x141 - x142 - x159 - x174 + x179  = -1
 c14:  - x184 + x189 + x192 + x201 - x202 - x219 - x234 + x239  = 0
 c15:  - x244 + x249 + x252 + x261 - x262 - x279 - x294 + x299  = 0
 c16:  - x304 + x309 + x312 + x321 - x322 - x339 - x354 + x359  = 0
 c17:  - x364 + x369 + x372 + x381 - x382 - x399 - x414 + x419  = 0
 c18:  - x424 + x429 + x432 + x441 - x442 - x459 - x474 + x479  = 0
 c19:  - x484 + x489 + x492 + x501 - x502 - x519 - x534 + x539  = -1
 c20:  - x544 + x549 + x552 + x561 - x562 - x579 - x594 + x599  = 0
 c21:  - x6 + x11 - x12 + x16 + x18 - x20 - x24 - x28 - x32 + x33 - x43 + x45
       - x56 + x57  = 0
 c22:  - x66 + x71 - x72 + x76 + x78 - x80 - x84 - x88 - x92 + x93 - x103
       + x105 - x116 + x117  = 0
 c23:  - x126 + x131 - x132 + x136 + x138 - x140 - x144 - x148 - x152 + x153
       - x163 + x165 - x176 + x177  = 0
 c24:  - x186 + x191 - x192 + x196 + x198 - x200 - x204 - x208 - x212 + x213
       - x223 + x225 - x236 + x237  = 0
 c25:  - x246 + x251 - x252 + x256 + x258 - x260 - x264 - x268 - x272 + x273
       - x283 + x285 - x296 + x297  = 0
 c26:  - x306 + x311 - x312 + x316 + x318 - x320 - x324 - x328 - x332 + x333
       - x343 + x345 - x356 + x357  = 0
 c27:  - x366 + x371 - x372 + x376 + x378 - x380 - x384 - x388 - x392 + x393
       - x403 + x405 - x416 + x417  = 0
 c28:  - x426 + x431 - x432 + x436 + x438 - x440 - x444 - x448 - x452 + x453
       - x463 + x465 - x476 + x477  = 0
 c29:  - x486 + x491 - x492 + x496 + x498 - x500 - x504 - x508 - x512 + x513
       - x523 + x525 - x536 + x537  = 0
 c30:  - x546 + x551 - x552 + x556 + x558 - x560 - x564 - x568 - x572 + x573
       - x583 + x585 - x596 + x597  = 0
 c31:  - x9 + x10 - x14 + x24 + x34 - x35 + x38 - x40 + x41 - x51 + x58  = 0
 c32:  - x69 + x70 - x74 + x84 + x94 - x95 + x98 - x100 + x101 - x111 + x118
        = 1
 c33:  - x129 + x130 - x134 + x144 + x154 - x155 + x158 - x160 + x161 - x171
       + x178  = 0
 c34:  - x189 + x190 - x194 + x204 + x214 - x215 + x218 - x220 + x221 - x231
       + x238  = -1
 c35:  - x249 + x250 - x254 + x264 + x274 - x275 + x278 - x280 + x281 - x291
       + x298  = 0
 c36:  - x309 + x310 - x314 + x324 + x334 - x335 + x338 - x340 + x341 - x351
       + x358  = 0
 c37:  - x369 + x370 - x374 + x384 + x394 - x395 + x398 - x400 + x401 - x411
       + x418  = 0
 c38:  - x429 + x430 - x434 + x444 + x454 - x455 + x458 - x460 + x461 - x471
       + x478  = 0
 c39:  - x489 + x490 - x494 + x504 + x514 - x515 + x518 - x520 + x521 - x531
       + x538  = 0
 c40:  - x549 + x550 - x554 + x564 + x574 - x575 + x578 - x580 + x581 - x591
       + x598  = 0
 c41:  x6 - x7 - x18 - x21 - x23 + x29 - x30 + x40 - x41 + x46 + x47 + x49
       - x53 + x54 - x55 - x60  = 0
 c42:  x66 - x67 - x78 - x81 - x83 + x89 - x90 + x100 - x101 + x106 + x107
       + x109 - x113 + x114 - x115 - x120  = -1
 c43:  x126 - x127 - x138 - x141 - x143 + x149 - x150 + x160 - x161 + x166
       + x167 + x169 - x173 + x174 - x175 - x180  = 0
 c44:  x186 - x187 - x198 - x201 - x203 + x209 - x210 + x220 - x221 + x226
       + x227 + x229 - x233 + x234 - x235 - x240  = 0
 c45:  x246 - x247 - x258 - x261 - x263 + x269 - x270 + x280 - x281 + x286
       + x287 + x289 - x293 + x294 - x295 - x300  = 1
 c46:  x306 - x307 - x318 - x321 - x323 + x329 - x330 + x340 - x341 + x346
       + x347 + x349 - x353 + x354 - x355 - x360  = 0
 c47:  x366 - x367 - x378 - x381 - x383 + x389 - x390 + x400 - x401 + x406
       + x407 + x409 - x413 + x414 - x415 - x420  = 0
 c48:  x426 - x427 - x438 - x441 - x443 + x449 - x450 + x460 - x461 + x466
       + x467 + x469 - x473 + x474 - x475 - x480  = 0
 c49:  x486 - x487 - x498 - x501 - x503 + x509 - x510 + x520 - x521 + x526
       + x527 + x529 - x533 + x534 - x535 - x540  = 0
 c50:  x546 - x547 - x558 - x561 - x563 + x569 - x570 + x580 - x581 + x586
       + x587 + x589 - x593 + x594 - x595 - x600  = 0
 c51:  x7 + x13 + x14 + x17 - x37 + x43 - x48 - x52 - x57  = 0
 c52:  x67 + x73 + x74 + x77 - x97 + x103 - x108 - x112 - x117  = 0
 c53:  x127 + x133 + x134 + x137 - x157 + x163 - x168 - x172 - x177  = 0
 c54:  x187 + x193 + x194 + x197 - x217 + x223 - x228 - x232 - x237  = 0
 c55:  x247 + x253 + x254 + x257 - x277 + x283 - x288 - x292 - x297  = 0
 c56:  x307 + x313 + x314 + x317 - x337 + x343 - x348 - x352 - x357  = -1
 c57:  x367 + x373 + x374 + x377 - x397 + x403 - x408 - x412 - x417  = 0
 c58:  x427 + x433 + x434 + x437 - x457 + x463 - x468 - x472 - x477  = -1
 c59:  x487 + x493 + x494 + x497 - x517 + x523 - x528 - x532 - x537  = 0
 c60:  x547 + x553 + x554 + x557 - x577 + x583 - x588 - x592 - x597  = 0
 c61:  x5 - x15 - x17 + x19 + x23 + x25 - x26 - x27 - x31 + x32 - x33 + x39
       - x49 + x52 - x58  = 1
 c62:  x65 - x75 - x77 + x79 + x83 + x85 - x86 - x87 - x91 + x92 - x93 + x99
       - x109 + x112 - x118  = 0
 c63:  x125 - x135 - x137 + x139 + x143 + x145 - x146 - x147 - x151 + x152
       - x153 + x159 - x169 + x172 - x178  = 1
 c64:  x185 - x195 - x197 + x199 + x203 + x205 - x206 - x207 - x211 + x212
       - x213 + x219 - x229 + x232 - x238  = 0
 c65:  x245 - x255 - x257 + x259 + x263 + x265 - x266 - x267 - x271 + x272
       - x273 + x279 - x289 + x292 - x298  = -1
 c66:  x305 - x315 - x317 + x319 + x323 + x325 - x326 - x327 - x331 + x332
       - x333 + x339 - x349 + x352 - x358  = 0
 c67:  x365 - x375 - x377 + x379 + x383 + x385 - x386 - x387 - x391 + x392
       - x393 + x399 - x409 + x412 - x418  = 0
 c68:  x425 - x435 - x437 + x439 + x443 + x445 - x446 - x447 - x451 + x452
       - x453 + x459 - x469 + x472 - x478  = 1
 c69:  x485 - x495 - x497 + x499 + x503 + x505 - x506 - x507 - x511 + x512
       - x513 + x519 - x529 + x532 - x538  = 0
 c70:  x545 - x555 - x557 + x559 + x563 + x565 - x566 - x567 - x571 + x572
       - x573 + x579 - x589 + x592 - x598  = 0
 c71:  x3 - x5 - x8 - x11 + x31 - x36 + x42 + x48 + x55 + x56  = 0
 c72:  x63 - x65 - x68 - x71 + x91 - x96 + x102 + x108 + x115 + x116  = 0
 c73:  x123 - x125 - x128 - x131 + x151 - x156 + x162 + x168 + x175 + x176  = 0
 c74:  x183 - x185 - x188 - x191 + x211 - x216 + x222 + x228 + x235 + x236  = 1
 c75:  x243 - x245 - x248 - x251 + x271 - x276 + x282 + x288 + x295 + x296  = 0
 c76:  x303 - x305 - x308 - x311 + x331 - x336 + x342 + x348 + x355 + x356  = 1
 c77:  x363 - x365 - x368 - x371 + x391 - x396 + x402 + x408 + x415 + x416  = 0
 c78:  x423 - x425 - x428 - x431 + x451 - x456 + x462 + x468 + x475 + x476  = 0
 c79:  x483 - x485 - x488 - x491 + x511 - x516 + x522 + x528 + x535 + x536  = 0
 c80:  x543 - x545 - x548 - x551 + x571 - x576 + x582 + x588 + x595 + x596
        = -1
 c81:  - x1 + x2 - x3 + x4 + x26 - x29 + x30 - x34 + x36 - x44 - x59  = 0
 c82:  - x61 + x62 - x63 + x64 + x86 - x89 + x90 - x94 + x96 - x104 - x119  = 0
 c83:  - x121 + x122 - x123 + x124 + x146 - x149 + x150 - x154 + x156 - x164
       - x179  = 0
 c84:  - x181 + x182 - x183 + x184 + x206 - x209 + x210 - x214 + x216 - x224
       - x239  = 0
 c85:  - x241 + x242 - x243 + x244 + x266 - x269 + x270 - x274 + x276 - x284
       - x299  = 0
 c86:  - x301 + x302 - x303 + x304 + x326 - x329 + x330 - x334 + x336 - x344
       - x359  = 0
 c87:  - x361 + x362 - x363 + x364 + x386 - x389 + x390 - x394 + x396 - x404
       - x419  = 0
 c88:  - x421 + x422 - x423 + x424 + x446 - x449 + x450 - x454 + x456 - x464
       - x479  = 0
 c89:  - x481 + x482 - x483 + x484 + x506 - x509 + x510 - x514 + x516 - x524
       - x539  = 0
 c90:  - x541 + x542 - x543 + x544 + x566 - x569 + x570 - x574 + x576 - x584
       - x599  = 0
 c91:  x8 - x13 - x19 + x20 + x22 + x27 - x38 + x44 - x45 - x46 - x50 + x51
       + x60  = 0
 c92:  x68 - x73 - x79 + x80 + x82 + x87 - x98 + x104 - x105 - x106 - x110
       + x111 + x120  = 0
 c93:  x128 - x133 - x139 + x140 + x142 + x147 - x158 + x164 - x165 - x166
       - x170 + x171 + x180  = 0
 c94:  x188 - x193 - x199 + x200 + x202 + x207 - x218 + x224 - x225 - x226
       - x230 + x231 + x240  = 0
 c95:  x248 - x253 - x259 + x260 + x262 + x267 - x278 + x284 - x285 - x286
       - x290 + x291 + x300  = 0
 c96:  x308 - x313 - x319 + x320 + x322 + x327 - x338 + x344 - x345 - x346
       - x350 + x351 + x360  = 0
 c97:  x368 - x373 - x379 + x380 + x382 + x387 - x398 + x404 - x405 - x406
       - x410 + x411 + x420  = 1
 c98:  x428 - x433 - x439 + x440 + x442 + x447 - x458 + x464 - x465 - x466
       - x470 + x471 + x480  = 0
 c99:  x488 - x493 - x499 + x500 + x502 + x507 - x518 + x524 - x525 - x526
       - x530 + x531 + x540  = 0
 c100: x548 - x553 - x559 + x560 + x562 + x567 - x578 + x584 - x585 - x586
       - x590 + x591 + x600  = 0
 c101: 4 x1 + 4 x61 + 4 x121 + 4 x181 + 4 x241 + 4 x301 + 4 x361 + 4 x421
       + 4 x481 + 4 x541 - 5 x601 <= 0
 c102: 4 x2 + 4 x62 + 4 x122 + 4 x182 + 4 x242 + 4 x302 + 4 x362 + 4 x422
       + 4 x482 + 4 x542 - 5 x602 <= 0
 c103: 4 x3 + 4 x63 + 4 x123 + 4 x183 + 4 x243 + 4 x303 + 4 x363 + 4 x423
       + 4 x483 + 4 x543 - 5 x603 <= 0
 c104: 4 x4 + 4 x64 + 4 x124 + 4 x184 + 4 x244 + 4 x304 + 4 x364 + 4 x424
       + 4 x484 + 4 x544 - 5 x604 <= 0
 c105: 4 x5 + 4 x65 + 4 x125 + 4 x185 + 4 x245 + 4 x305 + 4 x365 + 4 x425
       + 4 x485 + 4 x545 - 5 x605 <= 0
 c106: 4 x6 + 4 x66 + 4 x126 + 4 x186 + 4 x246 + 4 x306 + 4 x366 + 4 x426
       + 4 x486 + 4 x546 - 5 x606 <= 0
 c107: 4 x7 + 4 x67 + 4 x127 + 4 x187 + 4 x247 + 4 x307 + 4 x367 + 4 x427
       + 4 x487 + 4 x547 - 5 x607 <= 0
 c108: 4 x8 + 4 x68 + 4 x128 + 4 x188 + 4 x248 + 4 x308 + 4 x368 + 4 x428
       + 4 x488 + 4 x548 - 5 x608 <= 0
 c109: 4 x9 + 4 x69 + 4 x129 + 4 x189 + 4 x249 + 4 x309 + 4 x369 + 4 x429
       + 4 x489 + 4 x549 - 5 x609 <= 0
 c110: 4 x10 + 4 x70 + 4 x130 + 4 x190 + 4 x250 + 4 x310 + 4 x370 + 4 x430
       + 4 x490 + 4 x550 - 5 x610 <= 0
 c111: 4 x11 + 4 x71 + 4 x131 + 4 x191 + 4 x251 + 4 x311 + 4 x371 + 4 x431
       + 4 x491 + 4 x551 - 5 x611 <= 0
 c112: 4 x12 + 4 x72 + 4 x132 + 4 x192 + 4 x252 + 4 x312 + 4 x372 + 4 x432
       + 4 x492 + 4 x552 - 5 x612 <= 0
 c113: 4 x13 + 4 x73 + 4 x133 + 4 x193 + 4 x253 + 4 x313 + 4 x373 + 4 x433
       + 4 x493 + 4 x553 - 5 x613 <= 0
 c114: 4 x14 + 4 x74 + 4 x134 + 4 x194 + 4 x254 + 4 x314 + 4 x374 + 4 x434
       + 4 x494 + 4 x554 - 5 x614 <= 0
 c115: 4 x15 + 4 x75 + 4 x135 + 4 x195 + 4 x255 + 4 x315 + 4 x375 + 4 x435
       + 4 x495 + 4 x555 - 5 x615 <= 0
 c116: 4 x16 + 4 x76 + 4 x136 + 4 x196 + 4 x256 + 4 x316 + 4 x376 + 4 x436
       + 4 x496 + 4 x556 - 5 x616 <= 0
 c117: 4 x17 + 4 x77 + 4 x137 + 4 x197 + 4 x257 + 4 x317 + 4 x377 + 4 x437
       + 4 x497 + 4 x557 - 5 x617 <= 0
 c118: 4 x18 + 4 x78 + 4 x138 + 4 x198 + 4 x258 + 4 x318 + 4 x378 + 4 x438
       + 4 x498 + 4 x558 - 5 x618 <= 0
 c119: 4 x19 + 4 x79 + 4 x139 + 4 x199 + 4 x259 + 4 x319 + 4 x379 + 4 x439
       + 4 x499 + 4 x559 - 5 x619 <= 0
 c120: 4 x20 + 4 x80 + 4 x140 + 4 x200 + 4 x260 + 4 x320 + 4 x380 + 4 x440
       + 4 x500 + 4 x560 - 5 x620 <= 0
 c121: 4 x21 + 4 x81 + 4 x141 + 4 x201 + 4 x261 + 4 x321 + 4 x381 + 4 x441
       + 4 x501 + 4 x561 - 5 x621 <= 0
 c122: 4 x22 + 4 x82 + 4 x142 + 4 x202 + 4 x262 + 4 x322 + 4 x382 + 4 x442
       + 4 x502 + 4 x562 - 5 x622 <= 0
 c123: 4 x23 + 4 x83 + 4 x143 + 4 x203 + 4 x263 + 4 x323 + 4 x383 + 4 x443
       + 4 x503 + 4 x563 - 5 x623 <= 0
 c124: 4 x24 + 4 x84 + 4 x144 + 4 x204 + 4 x264 + 4 x324 + 4 x384 + 4 x444
       + 4 x504 + 4 x564 - 5 x624 <= 0
 c125: 4 x25 + 4 x85 + 4 x145 + 4 x205 + 4 x265 + 4 x325 + 4 x385 + 4 x445
       + 4 x505 + 4 x565 - 5 x625 <= 0
 c126: 4 x26 + 4 x86 + 4 x146 + 4 x206 + 4 x266 + 4 x326 + 4 x386 + 4 x446
       + 4 x506 + 4 x566 - 5 x626 <= 0
 c127: 4 x27 + 4 x87 + 4 x147 + 4 x207 + 4 x267 + 4 x327 + 4 x387 + 4 x447
       + 4 x507 + 4 x567 - 5 x627 <= 0
 c128: 4 x28 + 4 x88 + 4 x148 + 4 x208 + 4 x268 + 4 x328 + 4 x388 + 4 x448
       + 4 x508 + 4 x568 - 5 x628 <= 0
 c129: 4 x29 + 4 x89 + 4 x149 + 4 x209 + 4 x269 + 4 x329 + 4 x389 + 4 x449
       + 4 x509 + 4 x569 - 5 x629 <= 0
 c130: 4 x30 + 4 x90 + 4 x150 + 4 x210 + 4 x270 + 4 x330 + 4 x390 + 4 x450
       + 4 x510 + 4 x570 - 5 x630 <= 0
 c131: 4 x31 + 4 x91 + 4 x151 + 4 x211 + 4 x271 + 4 x331 + 4 x391 + 4 x451
       + 4 x511 + 4 x571 - 5 x631 <= 0
 c132: 4 x32 + 4 x92 + 4 x152 + 4 x212 + 4 x272 + 4 x332 + 4 x392 + 4 x452
       + 4 x512 + 4 x572 - 5 x632 <= 0
 c133: 4 x33 + 4 x93 + 4 x153 + 4 x213 + 4 x273 + 4 x333 + 4 x393 + 4 x453
       + 4 x513 + 4 x573 - 5 x633 <= 0
 c134: 4 x34 + 4 x94 + 4 x154 + 4 x214 + 4 x274 + 4 x334 + 4 x394 + 4 x454
       + 4 x514 + 4 x574 - 5 x634 <= 0
 c135: 4 x35 + 4 x95 + 4 x155 + 4 x215 + 4 x275 + 4 x335 + 4 x395 + 4 x455
       + 4 x515 + 4 x575 - 5 x635 <= 0
 c136: 4 x36 + 4 x96 + 4 x156 + 4 x216 + 4 x276 + 4 x336 + 4 x396 + 4 x456
       + 4 x516 + 4 x576 - 5 x636 <= 0
 c137: 4 x37 + 4 x97 + 4 x157 + 4 x217 + 4 x277 + 4 x337 + 4 x397 + 4 x457
       + 4 x517 + 4 x577 - 5 x637 <= 0
 c138: 4 x38 + 4 x98 + 4 x158 + 4 x218 + 4 x278 + 4 x338 + 4 x398 + 4 x458
       + 4 x518 + 4 x578 - 5 x638 <= 0
 c139: 4 x39 + 4 x99 + 4 x159 + 4 x219 + 4 x279 + 4 x339 + 4 x399 + 4 x459
       + 4 x519 + 4 x579 - 5 x639 <= 0
 c140: 4 x40 + 4 x100 + 4 x160 + 4 x220 + 4 x280 + 4 x340 + 4 x400 + 4 x460
       + 4 x520 + 4 x580 - 5 x640 <= 0
 c141: 4 x41 + 4 x101 + 4 x161 + 4 x221 + 4 x281 + 4 x341 + 4 x401 + 4 x461
       + 4 x521 + 4 x581 - 5 x641 <= 0
 c142: 4 x42 + 4 x102 + 4 x162 + 4 x222 + 4 x282 + 4 x342 + 4 x402 + 4 x462
       + 4 x522 + 4 x582 - 5 x642 <= 0
 c143: 4 x43 + 4 x103 + 4 x163 + 4 x223 + 4 x283 + 4 x343 + 4 x403 + 4 x463
       + 4 x523 + 4 x583 - 5 x643 <= 0
 c144: 4 x44 + 4 x104 + 4 x164 + 4 x224 + 4 x284 + 4 x344 + 4 x404 + 4 x464
       + 4 x524 + 4 x584 - 5 x644 <= 0
 c145: 4 x45 + 4 x105 + 4 x165 + 4 x225 + 4 x285 + 4 x345 + 4 x405 + 4 x465
       + 4 x525 + 4 x585 - 5 x645 <= 0
 c146: 4 x46 + 4 x106 + 4 x166 + 4 x226 + 4 x286 + 4 x346 + 4 x406 + 4 x466
       + 4 x526 + 4 x586 - 5 x646 <= 0
 c147: 4 x47 + 4 x107 + 4 x167 + 4 x227 + 4 x287 + 4 x347 + 4 x407 + 4 x467
       + 4 x527 + 4 x587 - 5 x647 <= 0
 c148: 4 x48 + 4 x108 + 4 x168 + 4 x228 + 4 x288 + 4 x348 + 4 x408 + 4 x468
       + 4 x528 + 4 x588 - 5 x648 <= 0
 c149: 4 x49 + 4 x109 + 4 x169 + 4 x229 + 4 x289 + 4 x349 + 4 x409 + 4 x469
       + 4 x529 + 4 x589 - 5 x649 <= 0
 c150: 4 x50 + 4 x110 + 4 x170 + 4 x230 + 4 x290 + 4 x350 + 4 x410 + 4 x470
       + 4 x530 + 4 x590 - 5 x650 <= 0
 c151: 4 x51 + 4 x111 + 4 x171 + 4 x231 + 4 x291 + 4 x351 + 4 x411 + 4 x471
       + 4 x531 + 4 x591 - 5 x651 <= 0
 c152: 4 x52 + 4 x112 + 4 x172 + 4 x232 + 4 x292 + 4 x352 + 4 x412 + 4 x472
       + 4 x532 + 4 x592 - 5 x652 <= 0
 c153: 4 x53 + 4 x113 + 4 x173 + 4 x233 + 4 x293 + 4 x353 + 4 x413 + 4 x473
       + 4 x533 + 4 x593 - 5 x653 <= 0
 c154: 4 x54 + 4 x114 + 4 x174 + 4 x234 + 4 x294 + 4 x354 + 4 x414 + 4 x474
       + 4 x534 + 4 x594 - 5 x654 <= 0
 c155: 4 x55 + 4 x115 + 4 x175 + 4 x235 + 4 x295 + 4 x355 + 4 x415 + 4 x475
       + 4 x535 + 4 x595 - 5 x655 <= 0
 c156: 4 x56 + 4 x116 + 4 x176 + 4 x236 + 4 x296 + 4 x356 + 4 x416 + 4 x476
       + 4 x536 + 4 x596 - 5 x656 <= 0
 c157: 4 x57 + 4 x117 + 4 x177 + 4 x237 + 4 x297 + 4 x357 + 4 x417 + 4 x477
       + 4 x537 + 4 x597 - 5 x657 <= 0
 c158: 4 x58 + 4 x118 + 4 x178 + 4 x238 + 4 x298 + 4 x358 + 4 x418 + 4 x478
       + 4 x538 + 4 x598 - 5 x658 <= 0
 c159: 4 x59 + 4 x119 + 4 x179 + 4 x239 + 4 x299 + 4 x359 + 4 x419 + 4 x479
       + 4 x539 + 4 x599 - 5 x659 <= 0
 c160: 4 x60 + 4 x120 + 4 x180 + 4 x240 + 4 x300 + 4 x360 + 4 x420 + 4 x480
       + 4 x540 + 4 x600 - 5 x660 <= 0
Bounds
 0 <= x1 <= 1
 0 <= x2 <= 1
 0 <= x3 <= 1
 0 <= x4 <= 1
 0 <= x5 <= 1
 0 <= x6 <= 1
 0 <= x7 <= 1
 0 <= x8 <= 1
 0 <= x9 <= 1
 0 <= x10 <= 1
 0 <= x11 <= 1
 0 <= x12 <= 1
 0 <= x13 <= 1
 0 <= x14 <= 1
 0 <= x15 <= 1
 0 <= x16 <= 1
 0 <= x17 <= 1
 0 <= x18 <= 1
 0 <= x19 <= 1
 0 <= x20 <= 1
 0 <= x21 <= 1
 0 <= x22 <= 1
 0 <= x23 <= 1
 0 <= x24 <= 1
 0 <= x25 <= 1
 0 <= x26 <= 1
 0 <= x27 <= 1
 0 <= x28 <= 1
 0 <= x29 <= 1
 0 <= x30 <= 1
 0 <= x31 <= 1
 0 <= x32 <= 1
 0 <= x33 <= 1
 0 <= x34 <= 1
 0 <= x35 <= 1
 0 <= x36 <= 1
 0 <= x37 <= 1
 0 <= x38 <= 1
 0 <= x39 <= 1
 0 <= x40 <= 1
 0 <= x41 <= 1
 0 <= x42 <= 1
 0 <= x43 <= 1
 0 <= x44 <= 1
 0 <= x45 <= 1
 0 <= x46 <= 1
 0 <= x47 <= 1
 0 <= x48 <= 1
 0 <= x49 <= 1
 0 <= x50 <= 1
 0 <= x51 <= 1
 0 <= x52 <= 1
 0 <= x53 <= 1
 0 <= x54 <= 1
 0 <= x55 <= 1
 0 <= x56 <= 1
 0 <= x57 <= 1
 0 <= x58 <= 1
 0 <= x59 <= 1
 0 <= x60 <= 1
 0 <= x61 <= 1
 0 <= x62 <= 1
 0 <= x63 <= 1
 0 <= x64 <= 1
 0 <= x65 <= 1
 0 <= x66 <= 1
 0 <= x67 <= 1
 0 <= x68 <= 1
 0 <= x69 <= 1
 0 <= x70 <= 1
 0 <= x71 <= 1
 0 <= x72 <= 1
 0 <= x73 <= 1
 0 <= x74 <= 1
 0 <= x75 <= 1
 0 <= x76 <= 1
 0 <= x77 <= 1
 0 <= x78 <= 1
 0 <= x79 <= 1
 0 <= x80 <= 1
 0 <= x81 <= 1
 0 <= x82 <= 1
 0 <= x83 <= 1
 0 <= x84 <= 1
 0 <= x85 <= 1
 0 <= x86 <= 1
 0 <= x87 <= 1
 0 <= x88 <= 1
 0 <= x89 <= 1
 0 <= x90 <= 1
 0 <= x91 <= 1
 0 <= x92 <= 1
 0 <= x93 <= 1
 0 <= x94 <= 1
 0 <= x95 <= 1
 0 <= x96 <= 1
 0 <= x97 <= 1
 0 <= x98 <= 1
 0 <= x99 <= 1
 0 <= x100 <= 1
 0 <= x101 <= 1
 0 <= x102 <= 1
 0 <= x103 <= 1
 0 <= x104 <= 1
 0 <= x105 <= 1
 0 <= x106 <= 1
 0 <= x107 <= 1
 0 <= x108 <= 1
 0 <= x109 <= 1
 0 <= x110 <= 1
 0 <= x111 <= 1
 0 <= x112 <= 1
 0 <= x113 <= 1
 0 <= x114 <= 1
 0 <= x115 <= 1
 0 <= x116 <= 1
 0 <= x117 <= 1
 0 <= x118 <= 1
 0 <= x119 <= 1
 0 <= x120 <= 1
 0 <= x121 <= 1
 0 <= x122 <= 1
 0 <= x123 <= 1
 0 <= x124 <= 1
 0 <= x125 <= 1
 0 <= x126 <= 1
 0 <= x127 <= 1
 0 <= x128 <= 1
 0 <= x129 <= 1
 0 <= x130 <= 1
 0 <= x131 <= 1
 0 <= x132 <= 1
 0 <= x133 <= 1
 0 <= x134 <= 1
 0 <= x135 <= 1
 0 <= x136 <= 1
 0 <= x137 <= 1
 0 <= x138 <= 1
 0 <= x139 <= 1
 0 <= x140 <= 1
 0 <= x141 <= 1
 0 <= x142 <= 1
 0 <= x143 <= 1
 0 <= x144 <= 1
 0 <= x145 <= 1
 0 <= x146 <= 1
 0 <= x147 <= 1
 0 <= x148 <= 1
 0 <= x149 <= 1
 0 <= x150 <= 1
 0 <= x151 <= 1
 0 <= x152 <= 1
 0 <= x153 <= 1
 0 <= x154 <= 1
 0 <= x155 <= 1
 0 <= x156 <= 1
 0 <= x157 <= 1
 0 <= x158 <= 1
 0 <= x159 <= 1
 0 <= x160 <= 1
 0 <= x161 <= 1
 0 <= x162 <= 1
 0 <= x163 <= 1
 0 <= x164 <= 1
 0 <= x165 <= 1
 0 <= x166 <= 1
 0 <= x167 <= 1
 0 <= x168 <= 1
 0 <= x169 <= 1
 0 <= x170 <= 1
 0 <= x171 <= 1
 0 <= x172 <= 1
 0 <= x173 <= 1
 0 <= x174 <= 1
 0 <= x175 <= 1
 0 <= x176 <= 1
 0 <= x177 <= 1
 0 <= x178 <= 1
 0 <= x179 <= 1
 0 <= x180 <= 1
 0 <= x181 <= 1
 0 <= x182 <= 1
 0 <= x183 <= 1
 0 <= x184 <= 1
 0 <= x185 <= 1
 0 <= x186 <= 1
 0 <= x187 <= 1
 0 <= x188 <= 1
 0 <= x189 <= 1
 0 <= x190 <= 1
 0 <= x191 <= 1
 0 <= x192 <= 1
 0 <= x193 <= 1
 0 <= x194 <= 1
 0 <= x195 <= 1
 0 <= x196 <= 1
 0 <= x197 <= 1
 0 <= x198 <= 1
 0 <= x199 <= 1
 0 <= x200 <= 1
 0 <= x201 <= 1
 0 <= x202 <= 1
 0 <= x203 <= 1
 0 <= x204 <= 1
 0 <= x205 <= 1
 0 <= x206 <= 1
 0 <= x207 <= 1
 0 <= x208 <= 1
 0 <= x209 <= 1
 0 <= x210 <= 1
 0 <= x211 <= 1
 0 <= x212 <= 1
 0 <= x213 <= 1
 0 <= x214 <= 1
 0 <= x215 <= 1
 0 <= x216 <= 1
 0 <= x217 <= 1
 0 <= x218 <= 1
 0 <= x219 <= 1
 0 <= x220 <= 1
 0 <= x221 <= 1
 0 <= x222 <= 1
 0 <= x223 <= 1
 0 <= x224 <= 1
 0 <= x225 <= 1
 0 <= x226 <= 1
 0 <= x227 <= 1
 0 <= x228 <= 1
 0 <= x229 <= 1
 0 <= x230 <= 1
 0 <= x231 <= 1
 0 <= x232 <= 1
 0 <= x233 <= 1
 0 <= x234 <= 1
 0 <= x235 <= 1
 0 <= x236 <= 1
 0 <= x237 <= 1
 0 <= x238 <= 1
 0 <= x239 <= 1
 0 <= x240 <= 1
 0 <= x241 <= 1
 0 <= x242 <= 1
 0 <= x243 <= 1
 0 <= x244 <= 1
 0 <= x245 <= 1
 0 <= x246 <= 1
 0 <= x247 <= 1
 0 <= x248 <= 1
 0 <= x249 <= 1
 0 <= x250 <= 1
 0 <= x251 <= 1
 0 <= x252 <= 1
 0 <= x253 <= 1
 0 <= x254 <= 1
 0 <= x255 <= 1
 0 <= x256 <= 1
 0 <= x257 <= 1
 0 <= x258 <= 1
 0 <= x259 <= 1
 0 <= x260 <= 1
 0 <= x261 <= 1
 0 <= x262 <= 1
 0 <= x263 <= 1
 0 <= x264 <= 1
 0 <= x265 <= 1
 0 <= x266 <= 1
 0 <= x267 <= 1
 0 <= x268 <= 1
 0 <= x269 <= 1
 0 <= x270 <= 1
 0 <= x271 <= 1
 0 <= x272 <= 1
 0 <= x273 <= 1
 0 <= x274 <= 1
 0 <= x275 <= 1
 0 <= x276 <= 1
 0 <= x277 <= 1
 0 <= x278 <= 1
 0 <= x279 <= 1
 0 <= x280 <= 1
 0 <= x281 <= 1
 0 <= x282 <= 1
 0 <= x283 <= 1
 0 <= x284 <= 1
 0 <= x285 <= 1
 0 <= x286 <= 1
 0 <= x287 <= 1
 0 <= x288 <= 1
 0 <= x289 <= 1
 0 <= x290 <= 1
 0 <= x291 <= 1
 0 <= x292 <= 1
 0 <= x293 <= 1
 0 <= x294 <= 1
 0 <= x295 <= 1
 0 <= x296 <= 1
 0 <= x297 <= 1
 0 <= x298 <= 1
 0 <= x299 <= 1
 0 <= x300 <= 1
 0 <= x301 <= 1
 0 <= x302 <= 1
 0 <= x303 <= 1
 0 <= x304 <= 1
 0 <= x305 <= 1
 0 <= x306 <= 1
 0 <= x307 <= 1
 0 <= x308 <= 1
 0 <= x309 <= 1
 0 <= x310 <= 1
 0 <= x311 <= 1
 0 <= x312 <= 1
 0 <= x313 <= 1
 0 <= x314 <= 1
 0 <= x315 <= 1
 0 <= x316 <= 1
 0 <= x317 <= 1
 0 <= x318 <= 1
 0 <= x319 <= 1
 0 <= x320 <= 1
 0 <= x321 <= 1
 0 <= x322 <= 1
 0 <= x323 <= 1
 0 <= x324 <= 1
 0 <= x325 <= 1
 0 <= x326 <= 1
 0 <= x327 <= 1
 0 <= x328 <= 1
 0 <= x329 <= 1
 0 <= x330 <= 1
 0 <= x331 <= 1
 0 <= x332 <= 1
 0 <= x333 <= 1
 0 <= x334 <= 1
 0 <= x335 <= 1
 0 <= x336 <= 1
 0 <= x337 <= 1
 0 <= x338 <= 1
 0 <= x339 <= 1
 0 <= x340 <= 1
 0 <= x341 <= 1
 0 <= x342 <= 1
 0 <= x343 <= 1
 0 <= x344 <= 1
 0 <= x345 <= 1
 0 <= x346 <= 1
 0 <= x347 <= 1
 0 <= x348 <= 1
 0 <= x349 <= 1
 0 <= x350 <= 1
 0 <= x351 <= 1
 0 <= x352 <= 1
 0 <= x353 <= 1
 0 <= x354 <= 1
 0 <= x355 <= 1
 0 <= x356 <= 1
 0 <= x357 <= 1
 0 <= x358 <= 1
 0 <= x359 <= 1
 0 <= x360 <= 1
 0 <= x361 <= 1
 0 <= x362 <= 1
 0 <= x363 <= 1
 0 <= x364 <= 1
 0 <= x365 <= 1
 0 <= x366 <= 1
 0 <= x367 <= 1
 0 <= x368 <= 1
 0 <= x369 <= 1
 0 <= x370 <= 1
 0 <= x371 <= 1
 0 <= x372 <= 1
 0 <= x373 <= 1
 0 <= x374 <= 1
 0 <= x375 <= 1
 0 <= x376 <= 1
 0 <= x377 <= 1
 0 <= x378 <= 1
 0 <= x379 <= 1
 0 <= x380 <= 1
 0 <= x381 <= 1
 0 <= x382 <= 1
 0 <= x383 <= 1
 0 <= x384 <= 1
 0 <= x385 <= 1
 0 <= x386 <= 1
 0 <= x387 <= 1
 0 <= x388 <= 1
 0 <= x389 <= 1
 0 <= x390 <= 1
 0 <= x391 <= 1
 0 <= x392 <= 1
 0 <= x393 <= 1
 0 <= x394 <= 1
 0 <= x395 <= 1
 0 <= x396 <= 1
 0 <= x397 <= 1
 0 <= x398 <= 1
 0 <= x399 <= 1
 0 <= x400 <= 1
 0 <= x401 <= 1
 0 <= x402 <= 1
 0 <= x403 <= 1
 0 <= x404 <= 1
 0 <= x405 <= 1
 0 <= x406 <= 1
 0 <= x407 <= 1
 0 <= x408 <= 1
 0 <= x409 <= 1
 0 <= x410 <= 1
 0 <= x411 <= 1
 0 <= x412 <= 1
 0 <= x413 <= 1
 0 <= x414 <= 1
 0 <= x415 <= 1
 0 <= x416 <= 1
 0 <= x417 <= 1
 0 <= x418 <= 1
 0 <= x419 <= 1
 0 <= x420 <= 1
 0 <= x421 <= 1
 0 <= x422 <= 1
 0 <= x423 <= 1
 0 <= x424 <= 1
 0 <= x425 <= 1
 0 <= x426 <= 1
 0 <= x427 <= 1
 0 <= x428 <= 1
 0 <= x429 <= 1
 0 <= x430 <= 1
 0 <= x431 <= 1
 0 <= x432 <= 1
 0 <= x433 <= 1
 0 <= x434 <= 1
 0 <= x435 <= 1
 0 <= x436 <= 1
 0 <= x437 <= 1
 0 <= x438 <= 1
 0 <= x439 <= 1
 0 <= x440 <= 1
 0 <= x441 <= 1
 0 <= x442 <= 1
 0 <= x443 <= 1
 0 <= x444 <= 1
 0 <= x445 <= 1
 0 <= x446 <= 1
 0 <= x447 <= 1
 0 <= x448 <= 1
 0 <= x449 <= 1
 0 <= x450 <= 1
 0 <= x451 <= 1
 0 <= x452 <= 1
 0 <= x453 <= 1
 0 <= x454 <= 1
 0 <= x455 <= 1
 0 <= x456 <= 1
 0 <= x457 <= 1
 0 <= x458 <= 1
 0 <= x459 <= 1
 0 <= x460 <= 1
 0 <= x461 <= 1
 0 <= x462 <= 1
 0 <= x463 <= 1
 0 <= x464 <= 1
 0 <= x465 <= 1
 0 <= x466 <= 1
 0 <= x467 <= 1
 0 <= x468 <= 1
 0 <= x469 <= 1
 0 <= x470 <= 1
 0 <= x471 <= 1
 0 <= x472 <= 1
 0 <= x473 <= 1
 0 <= x474 <= 1
 0 <= x475 <= 1
 0 <= x476 <= 1
 0 <= x477 <= 1
 0 <= x478 <= 1
 0 <= x479 <= 1
 0 <= x480 <= 1
 0 <= x481 <= 1
 0 <= x482 <= 1
 0 <= x483 <= 1
 0 <= x484 <= 1
 0 <= x485 <= 1
 0 <= x486 <= 1
 0 <= x487 <= 1
 0 <= x488 <= 1
 0 <= x489 <= 1
 0 <= x490 <= 1
 0 <= x491 <= 1
 0 <= x492 <= 1
 0 <= x493 <= 1
 0 <= x494 <= 1
 0 <= x495 <= 1
 0 <= x496 <= 1
 0 <= x497 <= 1
 0 <= x498 <= 1
 0 <= x499 <= 1
 0 <= x500 <= 1
 0 <= x501 <= 1
 0 <= x502 <= 1
 0 <= x503 <= 1
 0 <= x504 <= 1
 0 <= x505 <= 1
 0 <= x506 <= 1
 0 <= x507 <= 1
 0 <= x508 <= 1
 0 <= x509 <= 1
 0 <= x510 <= 1
 0 <= x511 <= 1
 0 <= x512 <= 1
 0 <= x513 <= 1
 0 <= x514 <= 1
 0 <= x515 <= 1
 0 <= x516 <= 1
 0 <= x517 <= 1
 0 <= x518 <= 1
 0 <= x519 <= 1
 0 <= x520 <= 1
 0 <= x521 <= 1
 0 <= x522 <= 1
 0 <= x523 <= 1
 0 <= x524 <= 1
 0 <= x525 <= 1
 0 <= x526 <= 1
 0 <= x527 <= 1
 0 <= x528 <= 1
 0 <= x529 <= 1
 0 <= x530 <= 1
 0 <= x531 <= 1
 0 <= x532 <= 1
 0 <= x533 <= 1
 0 <= x534 <= 1
 0 <= x535 <= 1
 0 <= x536 <= 1
 0 <= x537 <= 1
 0 <= x538 <= 1
 0 <= x539 <= 1
 0 <= x540 <= 1
 0 <= x541 <= 1
 0 <= x542 <= 1
 0 <= x543 <= 1
 0 <= x544 <= 1
 0 <= x545 <= 1
 0 <= x546 <= 1
 0 <= x547 <= 1
 0 <= x548 <= 1
 0 <= x549 <= 1
 0 <= x550 <= 1
 0 <= x551 <= 1
 0 <= x552 <= 1
 0 <= x553 <= 1
 0 <= x554 <= 1
 0 <= x555 <= 1
 0 <= x556 <= 1
 0 <= x557 <= 1
 0 <= x558 <= 1
 0 <= x559 <= 1
 0 <= x560 <= 1
 0 <= x561 <= 1
 0 <= x562 <= 1
 0 <= x563 <= 1
 0 <= x564 <= 1
 0 <= x565 <= 1
 0 <= x566 <= 1
 0 <= x567 <= 1
 0 <= x568 <= 1
 0 <= x569 <= 1
 0 <= x570 <= 1
 0 <= x571 <= 1
 0 <= x572 <= 1
 0 <= x573 <= 1
 0 <= x574 <= 1
 0 <= x575 <= 1
 0 <= x576 <= 1
 0 <= x577 <= 1
 0 <= x578 <= 1
 0 <= x579 <= 1
 0 <= x580 <= 1
 0 <= x581 <= 1
 0 <= x582 <= 1
 0 <= x583 <= 1
 0 <= x584 <= 1
 0 <= x585 <= 1
 0 <= x586 <= 1
 0 <= x587 <= 1
 0 <= x588 <= 1
 0 <= x589 <= 1
 0 <= x590 <= 1
 0 <= x591 <= 1
 0 <= x592 <= 1
 0 <= x593 <= 1
 0 <= x594 <= 1
 0 <= x595 <= 1
 0 <= x596 <= 1
 0 <= x597 <= 1
 0 <= x598 <= 1
 0 <= x599 <= 1
 0 <= x600 <= 1
 0 <= x601 <= 1
 0 <= x602 <= 1
 0 <= x603 <= 1
 0 <= x604 <= 1
 0 <= x605 <= 1
 0 <= x606 <= 1
 0 <= x607 <= 1
 0 <= x608 <= 1
 0 <= x609 <= 1
 0 <= x610 <= 1
 0 <= x611 <= 1
 0 <= x612 <= 1
 0 <= x613 <= 1
 0 <= x614 <= 1
 0 <= x615 <= 1
 0 <= x616 <= 1
 0 <= x617 <= 1
 0 <= x618 <= 1
 0 <= x619 <= 1
 0 <= x620 <= 1
 0 <= x621 <= 1
 0 <= x622 <= 1
 0 <= x623 <= 1
 0 <= x624 <= 1
 0 <= x625 <= 1
 0 <= x626 <= 1
 0 <= x627 <= 1
 0 <= x628 <= 1
 0 <= x629 <= 1
 0 <= x630 <= 1
 0 <= x631 <= 1
 0 <= x632 <= 1
 0 <= x633 <= 1
 0 <= x634 <= 1
 0 <= x635 <= 1
 0 <= x636 <= 1
 0 <= x637 <= 1
 0 <= x638 <= 1
 0 <= x639 <= 1
 0 <= x640 <= 1
 0 <= x641 <= 1
 0 <= x642 <= 1
 0 <= x643 <= 1
 0 <= x644 <= 1
 0 <= x645 <= 1
 0 <= x646 <= 1
 0 <= x647 <= 1
 0 <= x648 <= 1
 0 <= x649 <= 1
 0 <= x650 <= 1
 0 <= x651 <= 1
 0 <= x652 <= 1
 0 <= x653 <= 1
 0 <= x654 <= 1
 0 <= x655 <= 1
 0 <= x656 <= 1
 0 <= x657 <= 1
 0 <= x658 <= 1
 0 <= x659 <= 1
 0 <= x660 <= 1
Binaries
 x601  x602  x603  x604  x605  x606  x607  x608  x609  x610  x611  x612  x613 
 x614  x615  x616  x617  x618  x619  x620  x621  x622  x623  x624  x625  x626 
 x627  x628  x629  x630  x631  x632  x633  x634  x635  x636  x637  x638  x639 
 x640  x641  x642  x643  x644  x645  x646  x647  x648  x649  x650  x651  x652 
 x653  x654  x655  x656  x657  x658  x659  x660 
End
